
Starting CP-SAT solver v9.15.6755
Parameters: random_seed: 2026073261 max_time_in_seconds: 2500 log_search_progress: true cp_model_presolve: true linearization_level: 2 num_search_workers: 4 cp_model_probing_level: 2 symmetry_level: 2

Initial satisfaction model '': (model_fingerprint: 0x2685c39681cc7ede)
#Variables: 724 (608 primary variables)
  - 724 Booleans in [0,1]
#kBoolAnd: 110 (#enforced: 110) (#literals: 330)
#kBoolOr: 110 (#enforced: 110) (#literals: 220)
#kExactlyOne: 87 (#literals: 261)
#kLinear1: 32 (#enforced: 6)
#kLinear2: 336 (#enforced: 336) (#complex_domain: 110)
#kLinear3: 1'600 (#enforced: 6)
#kLinearN: 1'132 (#enforced: 243) (#terms: 9'111)

Starting presolve at 0.00s
  6.24e-04s  0.00e+00d  [DetectDominanceRelations] 
  8.26e-03s  0.00e+00d  [PresolveToFixPoint] #num_loops=3 #num_dual_strengthening=1 
  3.31e-05s  0.00e+00d  [ExtractEncodingFromLinear] #potential_supersets=86 
  2.80e-04s  0.00e+00d  [DetectDuplicateColumns] 
  1.08e-04s  0.00e+00d  [DetectDuplicateConstraints] #duplicates=5 
[Symmetry] Graph for symmetry has 4'868 nodes and 15'706 arcs.
[Symmetry] Symmetry computation done. time: 0.00121984 dtime: 0.00180439
[SAT presolve] num removable Booleans: 220 / 626
[SAT presolve] num trivial clauses: 0
[SAT presolve] [0s] clauses:2'724 literals:7'408 vars:506 one_side_vars:66 simple_definition:1 singleton_clauses:0
[SAT presolve] [0.000228796s] clauses:2'723 literals:7'401 vars:506 one_side_vars:66 simple_definition:1 singleton_clauses:0
[SAT presolve] [0.000706031s] clauses:2'244 literals:6'597 vars:380 one_side_vars:73 simple_definition:65 singleton_clauses:0
  1.21e-04s  0.00e+00d  [DetectDuplicateConstraintsWithDifferentEnforcements] #without_enforcements=2 
  5.20e-03s  2.22e-03d  [Probe] #probed=1'300 #fixed_bools=16 #equiv=8 #new_binary_clauses=812 
  4.60e-04s  2.51e-04d  [MaxClique] Merged 585 constraints with 1'299 literals into 507 constraints with 1'171 literals
  7.89e-04s  0.00e+00d  [DetectDominanceRelations] 
  3.10e-03s  0.00e+00d  [PresolveToFixPoint] #num_loops=1 #num_dual_strengthening=1 
  1.28e-03s  0.00e+00d  [ProcessAtMostOneAndLinear] 
  9.76e-05s  0.00e+00d  [DetectDuplicateConstraints] #duplicates=10 
  7.27e-05s  0.00e+00d  [DetectDuplicateConstraintsWithDifferentEnforcements] 
  3.53e-03s  1.06e-04d  [DetectDominatedLinearConstraints] #relevant_constraints=826 #num_inclusions=516 #num_redundant=7 
  1.18e-04s  0.00e+00d  [DetectDifferentVariables] 
  7.58e-04s  8.36e-05d  [ProcessSetPPC] #relevant_constraints=2'994 #num_inclusions=93 
  2.76e-04s  3.36e-05d  [TransformClausesToExactlyOne] #num_amos=496 #num_clauses=1'676 #num_checked=1'676 
  4.29e-05s  0.00e+00d  [DetectEncodedComplexDomains] 
  3.00e-05s  1.90e-07d  [FindAlmostIdenticalLinearConstraints] #num_tested_pairs=2 
  9.28e-04s  1.38e-03d  [FindBigAtMostOneAndLinearOverlap] 
  1.56e-03s  1.22e-03d  [FindBigVerticalLinearOverlap] #blocks=3 #saved_nz=93 
  3.38e-04s  6.64e-04d  [FindBigHorizontalLinearOverlap] #linears=455 
  3.34e-04s  2.71e-05d  [MergeClauses] #num_collisions=22 #num_merges=22 #num_saved_literals=110 
  7.75e-04s  0.00e+00d  [DetectDominanceRelations] 
  3.08e-03s  0.00e+00d  [PresolveToFixPoint] #num_loops=2 #num_dual_strengthening=1 
  7.51e-04s  0.00e+00d  [DetectDominanceRelations] 
  2.86e-03s  0.00e+00d  [PresolveToFixPoint] #num_loops=1 #num_dual_strengthening=1 
  2.03e-04s  0.00e+00d  [DetectDuplicateColumns] 
  8.06e-05s  0.00e+00d  [DetectDuplicateConstraints] 
[Symmetry] Graph for symmetry has 4'285 nodes and 13'439 arcs.
[Symmetry] Symmetry computation done. time: 0.000962259 dtime: 0.00138159
[SAT presolve] num removable Booleans: 93 / 475
[SAT presolve] num trivial clauses: 0
[SAT presolve] [0s] clauses:2'124 literals:6'317 vars:449 one_side_vars:148 simple_definition:75 singleton_clauses:0
[SAT presolve] [0.000219106s] clauses:2'124 literals:6'138 vars:449 one_side_vars:189 simple_definition:67 singleton_clauses:0
[SAT presolve] [0.000297478s] clauses:2'117 literals:6'129 vars:446 one_side_vars:191 simple_definition:58 singleton_clauses:0
  1.53e-04s  0.00e+00d  [DetectDuplicateConstraintsWithDifferentEnforcements] 
  5.48e-03s  1.80e-03d  [Probe] #probed=1'284 #new_binary_clauses=313 
  3.85e-04s  2.51e-04d  [MaxClique] Merged 492 constraints with 1'076 literals into 487 constraints with 1'074 literals
  7.59e-04s  0.00e+00d  [DetectDominanceRelations] 
  2.97e-03s  0.00e+00d  [PresolveToFixPoint] #num_loops=1 #num_dual_strengthening=1 
  1.15e-03s  0.00e+00d  [ProcessAtMostOneAndLinear] 
  1.01e-04s  0.00e+00d  [DetectDuplicateConstraints] 
  7.56e-05s  0.00e+00d  [DetectDuplicateConstraintsWithDifferentEnforcements] 
  1.03e-03s  5.70e-05d  [DetectDominatedLinearConstraints] #relevant_constraints=817 #num_inclusions=292 #num_redundant=1 
  1.25e-04s  0.00e+00d  [DetectDifferentVariables] 
  7.64e-04s  7.51e-05d  [ProcessSetPPC] #relevant_constraints=3'026 #num_inclusions=104 
  2.90e-04s  3.29e-05d  [TransformClausesToExactlyOne] #num_amos=488 #num_clauses=1'671 #num_checked=1'671 
  3.90e-05s  0.00e+00d  [DetectEncodedComplexDomains] 
  3.65e-05s  3.40e-07d  [FindAlmostIdenticalLinearConstraints] #num_tested_pairs=4 
  9.11e-04s  1.19e-03d  [FindBigAtMostOneAndLinearOverlap] 
  1.45e-03s  1.06e-03d  [FindBigVerticalLinearOverlap] #blocks=3 #saved_nz=208 
  3.33e-04s  5.98e-04d  [FindBigHorizontalLinearOverlap] #linears=458 
  3.32e-04s  2.62e-05d  [MergeClauses] #num_collisions=76 #num_merges=76 #num_saved_literals=219 
  7.92e-04s  0.00e+00d  [DetectDominanceRelations] 
  3.01e-03s  0.00e+00d  [PresolveToFixPoint] #num_loops=2 #num_dual_strengthening=1 
  7.73e-04s  0.00e+00d  [DetectDominanceRelations] 
  2.90e-03s  0.00e+00d  [PresolveToFixPoint] #num_loops=1 #num_dual_strengthening=1 
  1.97e-04s  0.00e+00d  [DetectDuplicateColumns] 
  1.10e-04s  0.00e+00d  [DetectDuplicateConstraints] 
[Symmetry] Graph for symmetry has 4'230 nodes and 12'893 arcs.
[Symmetry] Symmetry computation done. time: 0.000907774 dtime: 0.00126566
[SAT presolve] num removable Booleans: 90 / 472
[SAT presolve] num trivial clauses: 0
[SAT presolve] [0s] clauses:2'109 literals:6'108 vars:446 one_side_vars:192 simple_definition:59 singleton_clauses:0
[SAT presolve] [0.000200052s] clauses:2'109 literals:6'108 vars:446 one_side_vars:192 simple_definition:59 singleton_clauses:0
[SAT presolve] [0.000262772s] clauses:2'109 literals:6'108 vars:446 one_side_vars:192 simple_definition:59 singleton_clauses:0
  1.46e-04s  0.00e+00d  [DetectDuplicateConstraintsWithDifferentEnforcements] 
  5.20e-03s  1.77e-03d  [Probe] #probed=1'284 #new_binary_clauses=312 
  3.91e-04s  2.47e-04d  [MaxClique] Merged 486 constraints with 1'064 literals into 485 constraints with 1'063 literals
  7.75e-04s  0.00e+00d  [DetectDominanceRelations] 
  2.97e-03s  0.00e+00d  [PresolveToFixPoint] #num_loops=1 #num_dual_strengthening=1 
  1.12e-03s  0.00e+00d  [ProcessAtMostOneAndLinear] 
  1.00e-04s  0.00e+00d  [DetectDuplicateConstraints] 
  8.12e-05s  0.00e+00d  [DetectDuplicateConstraintsWithDifferentEnforcements] 
  1.29e-03s  5.92e-05d  [DetectDominatedLinearConstraints] #relevant_constraints=820 #num_inclusions=319 
  1.38e-04s  0.00e+00d  [DetectDifferentVariables] 
  7.52e-04s  7.03e-05d  [ProcessSetPPC] #relevant_constraints=3'027 #num_inclusions=71 
  2.99e-04s  3.29e-05d  [TransformClausesToExactlyOne] #num_amos=485 #num_clauses=1'671 #num_checked=1'671 
  4.78e-05s  0.00e+00d  [DetectEncodedComplexDomains] 
  4.68e-05s  1.70e-07d  [FindAlmostIdenticalLinearConstraints] #num_tested_pairs=2 
  8.12e-04s  9.89e-04d  [FindBigAtMostOneAndLinearOverlap] 
  1.25e-03s  8.69e-04d  [FindBigVerticalLinearOverlap] #blocks=1 #saved_nz=58 
  3.28e-04s  5.98e-04d  [FindBigHorizontalLinearOverlap] #linears=458 
  3.38e-04s  2.62e-05d  [MergeClauses] #num_collisions=76 #num_merges=76 #num_saved_literals=219 
  8.27e-04s  0.00e+00d  [DetectDominanceRelations] 
  3.18e-03s  0.00e+00d  [PresolveToFixPoint] #num_loops=2 #num_dual_strengthening=1 
  2.03e-05s  0.00e+00d  [MergeNoOverlap] 
  1.68e-05s  0.00e+00d  [MergeNoOverlap2D] 

Presolve summary:
  - 40 affine relations were detected.
  - rule 'TODO dual: only one blocking constraint?' was applied 862 times.
  - rule 'TODO dual: tighten at most one' was applied 8 times.
  - rule 'TODO linear inclusion: superset is equality' was applied 253 times.
  - rule 'affine: new relation' was applied 40 times.
  - rule 'at_most_one: removed literals' was applied 61 times.
  - rule 'at_most_one: size one' was applied 60 times.
  - rule 'at_most_one: transformed into max clique' was applied 3 times.
  - rule 'bool_or: implications' was applied 57 times.
  - rule 'bool_or: only one literal' was applied 12 times.
  - rule 'bool_or: removed enforcement literal' was applied 557 times.
  - rule 'deductions: 854 stored' was applied 1 time.
  - rule 'duplicate: merged rhs of linear constraint' was applied 14 times.
  - rule 'duplicate: removed constraint' was applied 15 times.
  - rule 'duplicate: removed enforced constraint' was applied 2 times.
  - rule 'enforcement: false literal' was applied 38 times.
  - rule 'enforcement: true literal' was applied 12 times.
  - rule 'exactly_one: removed literals' was applied 33 times.
  - rule 'exactly_one: satisfied' was applied 3 times.
  - rule 'exactly_one: singleton' was applied 3 times.
  - rule 'exactly_one: size two' was applied 30 times.
  - rule 'exactly_one: x and not(x)' was applied 6 times.
  - rule 'incompatible linear: add implication' was applied 126 times.
  - rule 'linear + amo: empty after processing' was applied 6 times.
  - rule 'linear + amo: extracted enforcement literal' was applied 54 times.
  - rule 'linear inclusion: redundant containing constraint' was applied 3 times.
  - rule 'linear inclusion: redundant included constraint' was applied 3 times.
  - rule 'linear inclusion: sparsify superset' was applied 2 times.
  - rule 'linear matrix: common vertical rectangle' was applied 7 times.
  - rule 'linear1: always true' was applied 3 times.
  - rule 'linear1: x in domain' was applied 26 times.
  - rule 'linear2: convert ax + by != cte to clauses' was applied 256 times.
  - rule 'linear2: convert implied ax + by == cte to clauses' was applied 114 times.
  - rule 'linear2: implied ax + by = cte has only one solution' was applied 8 times.
  - rule 'linear: always true' was applied 418 times.
  - rule 'linear: empty' was applied 5 times.
  - rule 'linear: enforcement literal in expression' was applied 4 times.
  - rule 'linear: extracted at most one (max)' was applied 1 time.
  - rule 'linear: fixed or dup variables' was applied 884 times.
  - rule 'linear: negative clause' was applied 1'293 times.
  - rule 'linear: negative reified and' was applied 78 times.
  - rule 'linear: never in domain' was applied 6 times.
  - rule 'linear: positive at most one' was applied 34 times.
  - rule 'linear: reduced variable domains' was applied 8 times.
  - rule 'linear: remapped using affine relations' was applied 29 times.
  - rule 'presolve: 82 unused variables removed.' was applied 1 time.
  - rule 'presolve: iteration' was applied 3 times.
  - rule 'probing: bool_or reduced to implication' was applied 21 times.
  - rule 'probing: simplified clauses' was applied 8 times.
  - rule 'setppc: bool_or in at_most_one' was applied 7 times.
  - rule 'setppc: removed dominated constraints' was applied 87 times.
  - rule 'variables: both boolean and its negation fix the same variable' was applied 2 times.
  - rule 'variables: detect half reified value encoding' was applied 4 times.

Presolved satisfaction model '': (model_fingerprint: 0x65c7b93c3c84d473)
#Variables: 477 (408 primary variables)
  - 472 Booleans in [0,1]
  - 2 in [0,2]
  - 2 in [0,6]
  - 1 in [0,9]
#kAtMostOne: 49 (#literals: 191)
#kBoolAnd: 262 (#enforced: 262) (#literals: 698)
#kBoolAndClauses: 76 (#enforced: 76 #multi: 76) (#literals: 371)
#kBoolOr: 1'519 (#literals: 4'642)
#kExactlyOne: 51 (#literals: 195)
#kLinearN: 820 (#enforced: 120) (#terms: 5'456)
[Symmetry] Graph for symmetry has 3'978 nodes and 12'833 arcs.
[Symmetry] Symmetry computation done. time: 0.000877215 dtime: 0.00124856

Preloading model.
#Model   0.09s var:477/477 constraints:2777/2777

Starting search at 0.09s with 4 workers.
3 full problem subsolvers: [default_lp, max_lp, no_lp]
1 first solution subsolver: [fj]
2 interleaved subsolvers: [feasibility_pump, rins/rens]
2 helper subsolvers: [neighborhood_helper, synchronization_agent]

#Model   0.34s var:475/477 constraints:2775/2777
#Model   1.46s var:474/477 constraints:2774/2777
#Model   2.82s var:473/477 constraints:2774/2777
#Model   9.14s var:472/477 constraints:2772/2777
#Model  89.69s var:471/477 constraints:2770/2777
#Model 1422.60s var:470/477 constraints:2768/2777
#Model 1932.34s var:469/477 constraints:2767/2777

Task timing                   n [     min,      max]      avg      dev     time         n [     min,      max]      avg      dev    dtime
        'default_lp':         1 [  41.67m,   41.67m]   41.67m   0.00ns   41.67m         2 [  1.91ms,   38.61m]   19.31m   19.31m   38.61m
  'feasibility_pump':     12385 [ 22.17us, 153.69ms]   1.74ms   1.41ms   21.56s     12381 [288.02us, 134.75ms] 300.85us   1.21ms    3.72s
                'fj':      9081 [112.35ms, 216.95ms] 136.38ms   7.51ms   20.64m      9081 [ 66.38ms, 100.14ms] 100.02ms 353.34us   15.14m
            'max_lp':         1 [  41.67m,   41.67m]   41.67m   0.00ns   41.67m         2 [ 79.52ms,   53.17m]   26.59m   26.59m   53.18m
             'no_lp':         1 [  41.67m,   41.67m]   41.67m   0.00ns   41.67m         2 [  1.58ms,    1.31h]   39.41m   39.41m    1.31h
         'rins/rens':     11050 [803.22us, 184.25ms] 112.08ms  44.17ms   20.64m     11048 [ 67.41us, 100.33ms]  67.51ms  37.86ms   12.43m

Search stats     Bools   Conflicts    Branches  Restarts  BacktrackToRoot   Backtrack     BoolPropag  IntegerPropag
  'default_lp':    472     208'338   8'582'045     1'282        1'383'389   1'912'861     88'682'818    107'122'143
      'max_lp':    472      90'770  13'336'299       659        2'115'757   2'638'191    131'891'397    172'274'846
       'no_lp':    472  20'822'159  28'956'099    68'909          598'762  21'330'055  1'671'230'225    420'703'939

SAT formula      Fixed  Equiv  Total  VarLeft  BinaryClauses  PermanentClauses  TemporaryClauses
  'default_lp':      8      7    472      457          2'482            47'260             7'630
      'max_lp':      8      7    472      457          2'482            46'877             7'488
       'no_lp':      8      7    472      457          2'482           143'298             8'404

SAT stats        ClassicMinim   LitRemoved  LitRemovedBinary   LitLearned  LitForgotten   Subsumed
  'default_lp':       182'597    2'555'783         1'832'443    6'937'490     4'734'373     70'468
      'max_lp':        76'166      918'241           725'317    2'375'677     1'425'983     31'781
       'no_lp':    18'562'198  346'262'473       177'834'844  538'811'009   442'228'255  5'041'958

Vivification       Clauses   Decisions  LitTrue  Subsumed  LitRemoved  DecisionReused  Conflicts
  'default_lp':  1'446'112   8'046'200        2    16'809     167'447         355'561      1'400
      'max_lp':  2'182'118  12'843'413        0    17'571     176'834         460'638      1'426
       'no_lp':    462'457   3'882'566        1    31'433     391'144         113'865      1'343

Clause deletion    at_true  l_and_not(l)  to_binary  sub_conflict  sub_extra  sub_decisions  sub_eager  sub_vivify  sub_probing  sub_inpro  blocked  eliminated   forgotten    promoted   conflicts
    'default_lp':      341             4          5        69'353        552          1'703      1'115      16'809        2'637      8'615        0           0     118'235     407'706     208'338
        'max_lp':      345             5          4        31'404        208            505        377      17'571        2'214      4'789        0           0      43'868     163'336      90'770
         'no_lp':      634             1          8     4'956'469     39'852        199'272     85'489      31'433        4'911     99'420        0           0  15'261'276  47'875'966  20'822'159

Lp stats         Component  Iterations  AddedCuts  OPTIMAL  DUAL_F.  DUAL_U.
  'default_lp':          1  26'099'505     93'051  307'058        0  159'377
      'max_lp':          1  14'285'468     76'704   41'704   67'067   33'904

Lp dimension        Final dimension of first component
  'default_lp':    328 rows, 340 columns, 9122 entries
      'max_lp':  1409 rows, 477 columns, 19936 entries

Lp debug         CutPropag  CutEqPropag   Adjust  Overflow        Bad  BadScaling
  'default_lp':          0          273  159'375         0  2'469'324           0
      'max_lp':          1          489   33'895         0  2'341'091           0

Lp pool          Constraints  Updates  Simplif  Merged  Shortened  Split  Strengthened       Cuts/Call
  'default_lp':        9'828   26'472      216       0      2'026    351             7  93'051/141'806
      'max_lp':       12'805   24'164      479       4        636  1'345         1'822  76'704/112'900

Lp Cut            max_lp  default_lp
          CG_FF:     175       1'495
           CG_K:      24         826
          CG_KL:       3         616
           CG_R:     112       1'630
          CG_RB:       3          35
         CG_RBP:       2          12
         Clique:     270           -
             IB:      22          36
       MIR_1_FF:     777         606
        MIR_1_K:      49         152
       MIR_1_KL:      19         379
        MIR_1_R:     386         618
       MIR_1_RB:       3           1
      MIR_1_RBP:       -           1
      MIR_1_RLT:   8'362           -
       MIR_2_FF:     612         984
        MIR_2_K:     120         291
       MIR_2_KL:     153         344
        MIR_2_R:     667       2'495
       MIR_2_RB:       4          28
      MIR_2_RBP:       -          18
       MIR_3_FF:     165         357
        MIR_3_K:      32          73
       MIR_3_KL:      29         100
        MIR_3_R:     289       1'544
       MIR_3_RB:       3          29
      MIR_3_RBP:       2          20
       MIR_4_FF:      41         136
        MIR_4_K:       7          30
       MIR_4_KL:      10          21
        MIR_4_R:     207       1'248
       MIR_4_RB:       2          22
      MIR_4_RBP:       -          11
       MIR_5_FF:      10          80
        MIR_5_K:       -          16
       MIR_5_KL:       2          12
        MIR_5_R:     158         884
       MIR_5_RB:       4          16
      MIR_5_RBP:       -          12
       MIR_6_FF:       2          40
        MIR_6_K:       1           6
       MIR_6_KL:       -           1
        MIR_6_R:     153         614
       MIR_6_RB:       1           7
      MIR_6_RBP:       1           6
   ZERO_HALF_FF:     517         547
    ZERO_HALF_K:      15          70
   ZERO_HALF_KL:       4          96
    ZERO_HALF_R:  63'169      76'145
   ZERO_HALF_RB:       1          16
  ZERO_HALF_RBP:     116         325

LNS stats       Improv/Calls  Closed  Difficulty  TimeLimit
  'rins/rens':   11048/11048     50%    7.34e-01       0.10

LS stats                                    Batches  Restarts/Perturbs    LinMoves    GenMoves  CompoundMoves  Bactracks  WeightUpdates  ScoreComputed
                             'fj_restart':      498                134  14'711'098           0              0          0     12'924'505     16'151'933
                    'fj_restart_compound':      467                112           0   5'081'466        284'176  2'398'404         12'978     84'272'714
                'fj_restart_compound_obj':      549                118           0   5'958'110        312'358  2'822'643         15'539     98'902'970
            'fj_restart_compound_perturb':      311                114           0   3'279'557        253'976  1'512'560          7'091     55'890'372
        'fj_restart_compound_perturb_obj':    1'002                140           0  11'080'137        404'000  5'337'776         34'871    181'739'326
                       'fj_restart_decay':      490                119  14'995'375           0              0          0        628'392      9'127'665
              'fj_restart_decay_compound':      611                137           0   7'361'078      1'235'784  3'062'212          7'843    111'023'003
          'fj_restart_decay_compound_obj':      975                131           0  12'126'594      2'019'703  5'053'082         12'349    177'656'865
      'fj_restart_decay_compound_perturb':      672                124           0   8'160'255      1'374'532  3'392'593          8'628    122'030'940
  'fj_restart_decay_compound_perturb_obj':      349                128           0   3'961'650        670'787  1'645'106          4'589     63'029'613
                   'fj_restart_decay_obj':      700                149  21'427'561           0              0          0        898'263     13'299'154
               'fj_restart_decay_perturb':      972                118  29'761'853           0              0          0      1'246'820     18'200'884
           'fj_restart_decay_perturb_obj':      370                123  11'313'818           0              0          0        474'578      6'903'641
                         'fj_restart_obj':      414                105  12'239'630           0              0          0     10'599'011     13'220'209
                     'fj_restart_perturb':      365                123  11'122'398           0              0          0      9'117'491     11'784'497
                 'fj_restart_perturb_obj':      336                127  10'272'493           0              0          0      8'283'077     10'740'049

Solution repositories    Added  Queried  Synchro
    'alternative_path':      0        0        0
      'best_solutions':      0        0        0
   'fj solution hints':  1'994        0    1'994
        'lp solutions':  1'041   11'050    1'039
                'pump':      0        0

Improving bounds shared    Num  Sym
            'default_lp':    3    0
                'max_lp':    5    0
                 'no_lp':    3    0

Clauses shared    #Exported  #Imported  #BinaryRead  #BinaryTotal
   'default_lp':      4'295     64'308          773           773
       'max_lp':      5'267     63'256          773           773
        'no_lp':     62'182      8'607          773           773

LRAT_status: NA
CpSolverResponse summary:
status: UNKNOWN
objective: NA
best_bound: NA
integers: 353
booleans: 472
conflicts: 20822159
branches: 28956099
propagations: 1671230225
integer_propagations: 420703939
restarts: 68909
lp_iterations: 0
walltime: 2500.04
usertime: 2500.04
deterministic_time: 11894.5
gap_integral: 0

{
  "board_size": 22,
  "parity_proved": 0,
  "target": 34,
  "child_id": 1161,
  "child_count": 2640,
  "partition": "unknown_pair_x_diag_plus_twos_x_diag_minus_twos",
  "build_seconds": 0.07445573806762695,
  "workers": 4,
  "requested_seed": 2026073261,
  "effective_seed": 2026073261,
  "main_diagonal_pair": [
    3,
    4
  ],
  "pair_index": 57,
  "diag_plus_twos": 16,
  "diag_minus_twos": 15,
  "pair_excess": 0,
  "residual_certificate_slack": 112,
  "analytic_minimum_line_defect": 46,
  "analytic_defect_details": {
    "row_costs": {
      "12": 6,
      "13": 3,
      "14": 0,
      "15": 0,
      "16": 0,
      "17": 0
    },
    "column_costs": {
      "12": 6,
      "13": 3,
      "14": 0,
      "15": 0,
      "16": 0,
      "17": 0
    },
    "plus_cost": 24,
    "minus_cost": 22,
    "row_column_minimum": 0
  },
  "maximal_line_constraints": 2455,
  "analytic_infeasible": false,
  "allowed_points": 242,
  "status": "UNKNOWN",
  "proof_method": "cp_sat_all_lines_with_certificate_profile_cuts",
  "elapsed_seconds": 2500.0428166389465,
  "branches": 28956099,
  "conflicts": 20822159
}
